units           metal
dimension       3
processors      * * *
boundary        p p p 

atom_style      atomic
read_data       filename  

# for Si we have a type of atoms
mass            1 28.0855 #Si

# for SiO2 we have 2 types of atoms
mass            2 28.0855  # Si
mass            1 15.9994  # O

velocity        all create 300 4928459 dist gaussian  # for SiO2, the initialization velocity is 500 K 

thermo          1000
thermo_style    custom step temp pe press etotal vol
pair_style      tersoff
pair_coeff  * * Si.tersoff Si

# for SiO2 we have interatomic potential from Neural Network 
pair_style      nn
pair_coeff      * * "/path/"  O Si # path that we have saved the potential after train 
neighbor        2.0 bin
neigh_modify    every 1 delay 0  check yes

timestep        0.0008

fix             1 all npt temp 300 300 0.08 iso 1 1 1
run             200000
unfix           1
  
reset_timestep  0
fix             1 all nve temp 300 300  0.08 

dump            2 all custom 4 dump512_TF.lammpstrj id type vx vy vz
dump_modify     2 sort id

#RDF
compute         myRDF all rdf  100  
fix             3 all ave/time 10 10 100 c_myRDF[*] file tmp512_TF.rdf mode vector

#ADF
compute         myADF all adf 45  1 1 1   r_i_in  r_i_out  r_j_in  r_j_out    
fix             4 all ave/time 10 10 100 c_myADF[*] file tmp512_TF.adf mode vector
run             37500
unfix           1
